1335	2127
1330	2158
1320	2162
1315	2169
1310	2171
1305	2176
1300	2180
1295	2190
1290	2195
1285	2196
1280	2208
1270	2211
1265	2217
1260	2227
1245	2238
1225	2246
1220	2251
1210	2256
1205	2264
1200	2274
1190	2283
1180	2288
1175	2293
1135	2312
